Problem:    
Rows:       248
Columns:    89 (72 integer, 72 binary)
Non-zeros:  820
Status:     INTEGER OPTIMAL
Objective:  value = 206.600894 (MINimum)

   No.   Row name        Activity     Lower bound   Upper bound
------ ------------    ------------- ------------- -------------
     1 r.5                   206.601             0               
     2 r.6                  -1664.71      -1973.13               
     3 r.7                    2206.6             0               
     4 r.8                  -1944.26      -1958.88               
     5 r.9                   206.601             0               
     6 r.10                 -1689.08      -1970.23               
     7 r.11                   2206.6             0               
     8 r.12                 -1900.86       -1956.6               
     9 r.13                   2206.6             0               
    10 r.14                 -1895.86      -1955.63               
    11 r.15                  206.601             0               
    12 r.16                  14.6208       -1931.6               
    13 r.17                   2206.6             0               
    14 r.18                 -1942.73      -1975.18               
    15 r.19                  206.601             0               
    16 r.20                 -1754.79       -1961.4               
    17 r.21                   2206.6             0               
    18 r.22                 -1977.55      -1977.55               
    19 r.23                  206.601             0               
    20 r.24                 -33.7788      -1965.84               
    21 r.25                  206.601             0               
    22 r.26                 -1721.35      -1927.95               
    23 r.27                   2206.6             0               
    24 r.28                  -1793.4      -1929.23               
    25 r.29                   2206.6             0               
    26 r.30                  -1793.4      -1930.23               
    27 r.31                  206.601             0               
    28 r.32                  135.833      -1929.77               
    29 r.33                   2206.6             0               
    30 r.34                    -1995      -1997.76               
    31 r.35                  206.601             0               
    32 r.36                        5      -1966.76               
    33 r.37                        1             1             = 
    34 r.38                        1             1             = 
    35 r.39                        1             1             = 
    36 r.40                        1             1             = 
    37 r.41                        1             1             = 
    38 r.42                        1             1             = 
    39 r.43                        1             1             = 
    40 r.44                        1             1             = 
    41 r.45                  1975.63       29.7699               
    42 r.46                 -1973.13      -1973.13               
    43 r.47                  43.4002       43.4002               
    44 r.48                 -48.4002      -1958.88               
    45 r.49                  1768.85        44.366               
    46 r.50                 -1768.85      -1973.13               
    47 r.51                  1958.88       68.3996               
    48 r.52                 -1958.88      -1958.88               
    49 r.53                  1721.98        24.823               
    50 r.54                 -1721.98      -1973.13               
    51 r.55                  189.469       38.6048               
    52 r.56                 -189.469      -1958.88               
    53 r.57                  1692.16       22.4478               
    54 r.58                 -1697.16      -1973.13               
    55 r.59                  1900.48       34.1636               
    56 r.60                 -1890.48      -1958.88               
    57 r.61                 -56.6382      -1895.26               
    58 r.62                 -128.687      -1863.85               
    59 r.63                 -1777.09      -1895.26               
    60 r.64                 -1849.14      -1863.85               
    61 r.65                  1871.31       69.7708               
    62 r.66                 -1871.31      -1973.13               
    63 r.67                  80.0969       70.2313               
    64 r.68                 -80.0969      -1958.88               
    65 r.69                 -1669.71      -1970.63               
    66 r.70                 -1949.26      -1953.88               
    67 r.71                 -1669.71      -1970.63               
    68 r.72                 -1949.26      -1953.88               
    69 r.73                  26.8683       26.8683               
    70 r.74                 -26.8683      -1970.23               
    71 r.75                   1951.6       41.1158               
    72 r.76                  -1951.6       -1956.6               
    73 r.77                  1795.72        44.366               
    74 r.78                 -1795.72      -1970.23               
    75 r.79                  1910.48       68.3996               
    76 r.80                 -1910.48       -1956.6               
    77 r.81                  1748.85        24.823               
    78 r.82                 -1748.85      -1970.23               
    79 r.83                  141.069       38.6048               
    80 r.84                 -141.069       -1956.6               
    81 r.85                  1719.03       22.4478               
    82 r.86                 -1724.03      -1970.23               
    83 r.87                  1852.08       34.1636               
    84 r.88                 -1842.08       -1956.6               
    85 r.89                  1970.23       72.0493               
    86 r.90                 -1970.23      -1970.23               
    87 r.91                  102.464       70.7674               
    88 r.92                 -102.464       -1956.6               
    89 r.93                 -101.819      -1897.54               
    90 r.94                  1827.41      -1864.38               
    91 r.95                 -1897.54      -1897.54               
    92 r.96                  31.6967      -1864.38               
    93 r.97                 -1696.58      -1967.73               
    94 r.98                 -1900.86       -1951.6               
    95 r.99                 -1696.58      -1967.73               
    96 r.100                -1900.86       -1951.6               
    97 r.101                 231.152       26.8683               
    98 r.102                -231.152      -1955.63               
    99 r.103                 41.1158       41.1158               
   100 r.104                -41.1158       -1931.6               
   101 r.105                 206.783       29.7699               
   102 r.106                -204.283      -1955.63               
   103 r.107                 84.5161       43.4002               
   104 r.108                -89.5161       -1931.6               
   105 r.109                -1953.13      -1953.13               
   106 r.110                -42.6501       -1926.6               
   107 r.111                -141.069      -1953.13               
   108 r.112                 1769.42       -1926.6               
   109 r.113                 1923.31       22.4478               
   110 r.114                -1928.31      -1955.63               
   111 r.115                  1941.6       34.1636               
   112 r.116                 -1931.6       -1931.6               
   113 r.117                 174.513       72.0493               
   114 r.118                -174.513      -1955.63               
   115 r.119                  191.98       70.7674               
   116 r.120                 -191.98       -1931.6               
   117 r.121                -1897.54      -1897.54               
   118 r.122                 31.6967      -1864.38               
   119 r.123                -1808.02      -1897.54               
   120 r.124                 121.213      -1864.38               
   121 r.125                -1900.86      -1953.13               
   122 r.126                 9.62078       -1926.6               
   123 r.127                -1900.86      -1953.13               
   124 r.128                 9.62078       -1926.6               
   125 r.129                 278.018       26.8683               
   126 r.130                -278.018      -1975.18               
   127 r.131                 1810.53       41.1158               
   128 r.132                -1810.53       -1961.4               
   129 r.133                 253.649       29.7699               
   130 r.134                -251.149      -1975.18               
   131 r.135                 1853.93       43.4002               
   132 r.136                -1858.93       -1961.4               
   133 r.137                -1953.13      -1953.13               
   134 r.138                -42.6501       -1926.6               
   135 r.139                -141.069      -1953.13               
   136 r.140                 1769.42       -1926.6               
   137 r.141                 1970.18       22.4478               
   138 r.142                -1975.18      -1975.18               
   139 r.143                 1711.02       34.1636               
   140 r.144                -1701.02       -1961.4               
   141 r.145                 221.379       72.0493               
   142 r.146                -221.379      -1975.18               
   143 r.147                  1961.4       70.7674               
   144 r.148                 -1961.4       -1961.4               
   145 r.149                -1850.67      -1897.54               
   146 r.150                 78.5627      -1864.38               
   147 r.151                -38.6048      -1897.54               
   148 r.152                 1890.63      -1864.38               
   149 r.153                -1947.73       -1959.6               
   150 r.154                -1759.79      -1930.24               
   151 r.155                -1947.73       -1959.6               
   152 r.156                -1759.79      -1930.24               
   153 r.157                 302.841       26.8683               
   154 r.158                -302.841      -1977.55               
   155 r.159                 109.515       41.1158               
   156 r.160                -109.515      -1965.84               
   157 r.161                 278.472       29.7699               
   158 r.162                -275.972      -1977.55               
   159 r.163                 152.916       43.4002               
   160 r.164                -157.916      -1965.84               
   161 r.165                  71.689        44.366               
   162 r.166                 -71.689      -1977.55               
   163 r.167                 68.3996       68.3996               
   164 r.168                -68.3996      -1965.84               
   165 r.169                  24.823        24.823               
   166 r.170                 -24.823      -1977.55               
   167 r.171                 298.985       38.6048               
   168 r.172                -298.985      -1965.84               
   169 r.173                 -1753.8      -1895.26               
   170 r.174                -1825.85      -1863.85               
   171 r.175                -1667.57      -1895.26               
   172 r.176                -1739.62      -1863.85               
   173 r.177                -1825.85      -1897.54               
   174 r.178                 103.386      -1864.38               
   175 r.179                -1739.62      -1897.54               
   176 r.180                 189.612      -1864.38               
   177 r.181                -1972.55      -1972.55               
   178 r.182                -58.7788      -1955.84               
   179 r.183                -1972.55      -1972.55               
   180 r.184                -58.7788      -1955.84               
   181 r.185                -56.6382      -1895.26               
   182 r.186                -128.687      -1863.85               
   183 r.187                -1777.09      -1895.26               
   184 r.188                -1849.14      -1863.85               
   185 r.189                 32.2699       29.7699               
   186 r.190                -29.7699      -1927.95               
   187 r.191                 1892.54       43.4002               
   188 r.192                -1897.54      -1929.23               
   189 r.193                 1825.49        44.366               
   190 r.194                -1825.49      -1927.95               
   191 r.195                 1808.02       68.3996               
   192 r.196                -1808.02      -1929.23               
   193 r.197                 1778.62        24.823               
   194 r.198                -1778.62      -1927.95               
   195 r.199                 38.6048       38.6048               
   196 r.200                -38.6048      -1929.23               
   197 r.201                 -1753.8      -1895.26               
   198 r.202                -1825.85      -1863.85               
   199 r.203                -1667.57      -1895.26               
   200 r.204                -1739.62      -1863.85               
   201 r.205                 1927.95       69.7708               
   202 r.206                -1927.95      -1927.95               
   203 r.207                 1929.23       70.2313               
   204 r.208                -1929.23      -1929.23               
   205 r.209                 128.687       26.8683               
   206 r.210                -128.687      -1930.23               
   207 r.211                  1919.9       41.1158               
   208 r.212                 -1919.9      -1929.77               
   209 r.213                -101.819      -1897.54               
   210 r.214                 1827.41      -1864.38               
   211 r.215                -1897.54      -1897.54               
   212 r.216                 31.6967      -1864.38               
   213 r.217                -1897.54      -1897.54               
   214 r.218                 31.6967      -1864.38               
   215 r.219                -1808.02      -1897.54               
   216 r.220                 121.213      -1864.38               
   217 r.221                -1850.67      -1897.54               
   218 r.222                 78.5627      -1864.38               
   219 r.223                -38.6048      -1897.54               
   220 r.224                 1890.63      -1864.38               
   221 r.225                -1825.85      -1897.54               
   222 r.226                 103.386      -1864.38               
   223 r.227                -1739.62      -1897.54               
   224 r.228                 189.612      -1864.38               
   225 r.229                 72.0493       72.0493               
   226 r.230                -72.0493      -1930.23               
   227 r.231                 70.7674       70.7674               
   228 r.232                -70.7674      -1929.77               
   229 r.233                -1669.71      -1970.63               
   230 r.234                -1949.26      -1953.88               
   231 r.235                -1669.71      -1970.63               
   232 r.236                -1949.26      -1953.88               
   233 r.237                -1696.58      -1967.73               
   234 r.238                -1900.86       -1951.6               
   235 r.239                -1696.58      -1967.73               
   236 r.240                -1900.86       -1951.6               
   237 r.241                -1900.86      -1953.13               
   238 r.242                 9.62078       -1926.6               
   239 r.243                -1900.86      -1953.13               
   240 r.244                 9.62078       -1926.6               
   241 r.245                -1947.73       -1959.6               
   242 r.246                -1759.79      -1930.24               
   243 r.247                -1947.73       -1959.6               
   244 r.248                -1759.79      -1930.24               
   245 r.249                -1972.55      -1972.55               
   246 r.250                -58.7788      -1955.84               
   247 r.251                -1972.55      -1972.55               
   248 r.252                -58.7788      -1955.84               

   No. Column name       Activity     Lower bound   Upper bound
------ ------------    ------------- ------------- -------------
     1 tt                    206.601             0               
     2 s_1_1        *              0             0             1 
     3 t_1_1                 1871.31             0               
     4 s_1_6        *              0             0             1 
     5 s_2_1        *              1             0             1 
     6 t_2_1                 150.864             0               
     7 s_2_6        *              1             0             1 
     8 s_1_2        *              0             0             1 
     9 t_1_2                 1898.18             0               
    10 s_1_7        *              1             0             1 
    11 s_2_2        *              1             0             1 
    12 t_2_2                 102.464             0               
    13 s_2_7        *              0             0             1 
    14 s_1_3        *              1             0             1 
    15 t_1_3                 102.464             0               
    16 s_2_3        *              0             0             1 
    17 t_2_3                  191.98             0               
    18 s_1_4        *              1             0             1 
    19 t_1_4                  149.33             0               
    20 s_2_4        *              0             0             1 
    21 t_2_4                  1961.4             0               
    22 s_1_5        *              1             0             1 
    23 t_1_5                 174.153             0               
    24 s_2_5        *              0             0             1 
    25 t_2_5                  260.38             0               
    26 t_1_6                 1927.95             0               
    27 t_2_6                       0             0               
    28 t_1_7                       0             0               
    29 t_2_7                 70.7674             0               
    30 s_1_8        *              1             0             1 
    31 t_1_8                 201.601             0               
    32 s_2_8        *              0             0             1 
    33 t_2_8                 201.601             0               
    34 u_1_1_2      *              1             0             1 
    35 u_2_1_2      *              0             0             1 
    36 u_1_1_3      *              0             0             1 
    37 u_2_1_3      *              1             0             1 
    38 u_1_1_4      *              0             0             1 
    39 u_2_1_4      *              1             0             1 
    40 u_1_1_5      *              0             0             1 
    41 u_2_1_5      *              1             0             1 
    42 u_1_1_7      *              0             0             1 
    43 u_2_1_7      *              0             0             1 
    44 u_1_2_1      *              0             0             1 
    45 u_2_2_1      *              1             0             1 
    46 u_1_2_3      *              0             0             1 
    47 u_2_2_3      *              1             0             1 
    48 u_1_2_4      *              0             0             1 
    49 u_2_2_4      *              1             0             1 
    50 u_1_2_5      *              0             0             1 
    51 u_2_2_5      *              1             0             1 
    52 u_1_2_6      *              1             0             1 
    53 u_2_2_6      *              0             0             1 
    54 u_1_3_1      *              1             0             1 
    55 u_2_3_1      *              0             0             1 
    56 u_1_3_2      *              1             0             1 
    57 u_2_3_2      *              0             0             1 
    58 u_1_3_5      *              1             0             1 
    59 u_2_3_5      *              1             0             1 
    60 u_1_3_6      *              1             0             1 
    61 u_2_3_6      *              0             0             1 
    62 u_1_4_1      *              1             0             1 
    63 u_2_4_1      *              0             0             1 
    64 u_1_4_2      *              1             0             1 
    65 u_2_4_2      *              0             0             1 
    66 u_1_4_5      *              1             0             1 
    67 u_2_4_5      *              0             0             1 
    68 u_1_4_6      *              1             0             1 
    69 u_2_4_6      *              0             0             1 
    70 u_1_5_1      *              1             0             1 
    71 u_2_5_1      *              0             0             1 
    72 u_1_5_2      *              1             0             1 
    73 u_2_5_2      *              0             0             1 
    74 u_1_5_3      *              0             0             1 
    75 u_2_5_3      *              0             0             1 
    76 u_1_5_4      *              0             0             1 
    77 u_2_5_4      *              1             0             1 
    78 u_1_6_2      *              0             0             1 
    79 u_2_6_2      *              1             0             1 
    80 u_1_6_3      *              0             0             1 
    81 u_2_6_3      *              1             0             1 
    82 u_1_6_4      *              0             0             1 
    83 u_2_6_4      *              1             0             1 
    84 u_1_6_7      *              0             0             1 
    85 u_2_6_7      *              1             0             1 
    86 u_1_7_1      *              1             0             1 
    87 u_2_7_1      *              1             0             1 
    88 u_1_7_6      *              1             0             1 
    89 u_2_7_6      *              0             0             1 

Integer feasibility conditions:

KKT.PE: max.abs.err = 4.55e-13 on row 8
        max.rel.err = 1.08e-16 on row 72
        High quality

KKT.PB: max.abs.err = 4.55e-13 on row 179
        max.rel.err = 4.26e-14 on column 27
        High quality

End of output
